StudentsNr = 15;
InstructorsNr = 10;
DaysNr = 2;
SlotsPerDay = 10;
AvailabilitySlotsLenght = 2;
RoomNr = 2;
ProgrammNr = 2;
DegreeNr = 1;
RolesNr = 2;
CoursesNr = 3;
InstructorsProgramm = [{1, 2}, {1}, {1, 2}, {1, 2}, {1, 2}, {1}, {1}, {2}, {1}, {2}];
InstructorsRoles = [{}, {1, 2}, {1}, {1, 2}, {}, {1}, {}, {}, {1, 2}, {}];
InstructorsAvailability = [|1, 0, 0, 1, 1, 0, 0, 1, 1, 1, |0, 1, 1, 1, 1, 1, 0, 1, 1, 1, |0, 1, 1, 1, 1, 1, 1, 1, 1, 1, |1, 1, 1, 1, 1, 1, 1, 1, 1, 1, |0, 1, 1, 1, 1, 1, 1, 1, 1, 1, |1, 1, 1, 1, 1, 1, 0, 0, 1, 1, |0, 0, 1, 1, 1, 1, 1, 0, 0, 1, |1, 1, 0, 0, 0, 1, 1, 1, 0, 0, |0, 0, 1, 1, 1, 1, 1, 1, 0, 0, |1, 1, 1, 1, 1, 1, 1, 0, 1, 1|];
StudentsProgramm = [2, 1, 1, 2, 1, 2, 1, 1, 2, 2, 1, 2, 1, 1, 1];
StudentsDegree = [1, 1, 1, 1, 1, 1, 1, 1, 1, 1, 1, 1, 1, 1, 1];
StudentsSupervisorId = [1, 1, 3, 10, 9, 3, 5, 5, 8, 10, 5, 3, 9, 6, 7];
StudentsCourseIds = [{2}, {3}, {2}, {3}, {3}, {2}, {3}, {1}, {3}, {2}, {3}, {3}, {3}, {1}, {3}];
StudentsAvailability = [|0, 1, 1, 1, 0, 1, 1, 1, 1, 1, |0, 1, 1, 1, 1, 1, 1, 1, 1, 1, |0, 1, 1, 1, 1, 1, 0, 1, 1, 1, |1, 0, 1, 1, 1, 1, 1, 1, 0, 1, |0, 0, 1, 1, 1, 1, 1, 1, 1, 1, |1, 1, 1, 1, 1, 1, 0, 1, 1, 1, |1, 1, 1, 1, 1, 0, 0, 1, 1, 1, |1, 0, 1, 1, 1, 1, 1, 1, 1, 1, |0, 0, 1, 1, 1, 1, 1, 1, 0, 1, |1, 1, 0, 1, 1, 1, 1, 1, 1, 1, |1, 1, 1, 1, 0, 0, 0, 0, 0, 1, |0, 0, 1, 1, 1, 1, 1, 1, 0, 0, |0, 1, 1, 0, 1, 1, 1, 1, 1, 1, |0, 0, 0, 1, 1, 1, 1, 1, 1, 1, |1, 1, 1, 1, 1, 1, 1, 1, 1, 1|];
CoursesInstructorIds = [{2, 5, 6, 7, 9, 10}, {2, 4, 5, 6, 7, 10}, {2, 4, 5, 7, 8}];
